(set-logic QF_LIA)
(declare-fun a0 () Int)
(declare-fun a1 () Int)
(declare-fun a2 () Int)
(declare-fun a3 () Int)
(declare-fun a4 () Int)
(declare-fun a5 () Int)
(declare-fun a6 () Int)
(declare-fun a7 () Int)
(assert (< a0 a3))
(assert (not (< a1 a3)))
(assert (< a3 a7))
(assert (not (< a3 a6)))
(assert (not (< a2 a3)))
(assert (not (< a3 a5)))
(assert (not (< a3 a4)))
(assert (< a0 a4))
(assert (< a6 a4))
(assert (< a5 a4))
(check-sat)
(exit)
